data;

set A := 848470803 510554469 510662493 305399849 926396568 688213199 616938622 551200486 569299864 976191330 448803995 58237069 587087199 679327883 505325432 680198792 212235379 236686976 992525743 728342954 436431317 826969986 14744565 755382130;
param T := 6000000000;

end;
